
Welcome to IBM(R) ILOG(R) CPLEX(R) Interactive Optimizer 22.1.1.0
  with Simplex, Mixed Integer & Barrier Optimizers
5725-A06 5725-A29 5724-Y48 5724-Y49 5724-Y54 5724-Y55 5655-Y21
Copyright IBM Corp. 1988, 2022.  All Rights Reserved.

Type 'help' for a list of available commands.
Type 'help' followed by a command name for more
information on commands.

CPLEX> Selected objective sense:  MINIMIZE
Selected objective  name:  00000000
Selected RHS        name:  RHS1
Selected bound      name:  BOUND
Problem 'ee.mps' read.
Read time = 0.02 sec. (3.17 ticks)
CPLEX> New value for time limit in seconds: 7200
CPLEX> New value for parallel optimization mode: -1
CPLEX> New value for default parallel thread count: 40
CPLEX> New value for mixed integer optimality gap tolerance: 1e-13
CPLEX> Version identifier: 22.1.1.0 | 2022-11-28 | 9160aff4d
CPXPARAM_Threads                                 40
CPXPARAM_Parallel                                -1
CPXPARAM_TimeLimit                               7200
CPXPARAM_MIP_Tolerances_MIPGap                   1e-13
Found incumbent of value 0.000000 after 0.00 sec. (0.31 ticks)
Tried aggregator 2 times.
MIP Presolve eliminated 182 rows and 2745 columns.
MIP Presolve modified 6090 coefficients.
Aggregator did 713 substitutions.
Reduced MIP has 3636 rows, 7840 columns, and 28954 nonzeros.
Reduced MIP has 7840 binaries, 0 generals, 0 SOSs, and 0 indicators.
Presolve time = 0.07 sec. (69.14 ticks)
Probing time = 0.03 sec. (5.33 ticks)
Tried aggregator 1 time.
Detecting symmetries...
Reduced MIP has 3636 rows, 7840 columns, and 28954 nonzeros.
Reduced MIP has 7840 binaries, 0 generals, 0 SOSs, and 0 indicators.
Presolve time = 0.03 sec. (22.07 ticks)
Probing time = 0.02 sec. (5.12 ticks)
Clique table members: 18788.
MIP emphasis: balance optimality and feasibility.
MIP search method: dynamic search.
Parallel mode: opportunistic, using up to 40 threads.
Root relaxation solution time = 0.14 sec. (122.25 ticks)

        Nodes                                         Cuts/
   Node  Left     Objective  IInf  Best Integer    Best Bound    ItCnt     Gap

*     0+    0                            0.0000  -1.54000e+13              --- 
*     0+    0                      -8.19000e+12  -1.54000e+13            88.03%
      0     0  -1.53900e+13    88  -8.19000e+12  -1.53900e+13     2574   87.91%
*     0+    0                      -1.53900e+13  -1.53900e+13             0.00%
      0     0  -1.53900e+13   176  -1.53900e+13      Cuts: 71     2975    0.00%
*     0+    0                      -1.53900e+13  -1.53900e+13             0.00%
      0     0  -1.53900e+13   215  -1.53900e+13      Cuts: 81     3395    0.00%
*     0+    0                      -1.53900e+13  -1.53900e+13             0.00%
*     0+    0                      -1.53900e+13  -1.53900e+13             0.00%
      0     2  -1.53900e+13   188  -1.53900e+13  -1.53900e+13     3551    0.00%
Elapsed time = 2.58 sec. (1315.43 ticks, tree = 0.02 MB, solutions = 8)
*     2+    2                      -1.53900e+13  -1.53900e+13             0.00%
    351   105  -1.53900e+13   170  -1.53900e+13  -1.53900e+13    22205    0.00%
    863   262        cutoff        -1.53900e+13  -1.53900e+13    51165    0.00%
   1197   304        cutoff        -1.53900e+13  -1.53900e+13    59675    0.00%
   1420   637  -1.53900e+13   201  -1.53900e+13  -1.53900e+13   191576    0.00%
   1755   647  -1.53900e+13   213  -1.53900e+13  -1.53900e+13   211395    0.00%
   2074   644        cutoff        -1.53900e+13  -1.53900e+13   204463    0.00%
   2503   626        cutoff        -1.53900e+13  -1.53900e+13   177178    0.00%
   2900   639        cutoff        -1.53900e+13  -1.53900e+13   191831    0.00%
   3308   626    infeasible        -1.53900e+13  -1.53900e+13   312156    0.00%
   4529   775  -1.53900e+13   216  -1.53900e+13  -1.53900e+13   543135    0.00%
Elapsed time = 8.45 sec. (4419.61 ticks, tree = 9.36 MB, solutions = 8)
   5292   746  -1.53900e+13    34  -1.53900e+13  -1.53900e+13   512607    0.00%
   6465   724        cutoff        -1.53900e+13  -1.53900e+13   709394    0.00%
   8026   495  -1.53900e+13   110  -1.53900e+13  -1.53900e+13   869374    0.00%
  10313   498        cutoff        -1.53900e+13  -1.53900e+13   873370    0.00%
  12026   882        cutoff        -1.53900e+13  -1.53900e+13  1009415    0.00%
  13291  1414  -1.53900e+13    33  -1.53900e+13  -1.53900e+13  1126434    0.00%
  14217  1726  -1.53900e+13    50  -1.53900e+13  -1.53900e+13  1276233    0.00%

Performing restart 1

Repeating presolve.
Tried aggregator 2 times.
MIP Presolve eliminated 281 rows and 835 columns.
MIP Presolve modified 2180 coefficients.
Aggregator did 90 substitutions.
Reduced MIP has 3172 rows, 6904 columns, and 24767 nonzeros.
Reduced MIP has 6904 binaries, 0 generals, 0 SOSs, and 0 indicators.
Presolve time = 0.09 sec. (84.18 ticks)
Tried aggregator 2 times.
MIP Presolve eliminated 21 rows and 74 columns.
MIP Presolve modified 4 coefficients.
Aggregator did 13 substitutions.
Reduced MIP has 3138 rows, 6810 columns, and 24416 nonzeros.
Reduced MIP has 6810 binaries, 0 generals, 0 SOSs, and 0 indicators.
Presolve time = 0.04 sec. (41.35 ticks)
Tried aggregator 1 time.
Reduced MIP has 3138 rows, 6810 columns, and 24416 nonzeros.
Reduced MIP has 6810 binaries, 0 generals, 0 SOSs, and 0 indicators.
Presolve time = 0.02 sec. (19.04 ticks)
Represolve time = 0.34 sec. (233.13 ticks)
  14394     0  -1.53900e+13   273  -1.53900e+13      Cuts: 56  1506435    0.00%
  14394     0  -1.53900e+13   295  -1.53900e+13      Cuts: 38  1506651    0.00%
  14394     0  -1.53900e+13   252  -1.53900e+13      Cuts: 36  1506919    0.00%
  14394     0  -1.53900e+13   299  -1.53900e+13      Cuts: 25  1507086    0.00%
  14394     0  -1.53900e+13   362  -1.53900e+13      Cuts: 20  1507403    0.00%
  14394     0  -1.53900e+13   354  -1.53900e+13      Cuts: 55  1507697    0.00%
  14394     0  -1.53900e+13   266  -1.53900e+13      Cuts: 28  1507815    0.00%
  14394     0  -1.53900e+13   364  -1.53900e+13      Cuts: 46  1508518    0.00%
  14394    32        cutoff        -1.53900e+13  -1.53900e+13  1548809    0.00%
  14586    55        cutoff        -1.53900e+13  -1.53900e+13  1598540    0.00%
  15181    30  -1.53900e+13   103  -1.53900e+13  -1.53900e+13  1671560    0.00%
Elapsed time = 30.02 sec. (17039.21 ticks, tree = 0.22 MB, solutions = 32)
  15620    29  -1.53900e+13   158  -1.53900e+13  -1.53900e+13  1682378    0.00%
  15844    61  -1.53900e+13   206  -1.53900e+13  -1.53900e+13  1684343    0.00%

GUB cover cuts applied:  11
Clique cuts applied:  18
Cover cuts applied:  408
Flow cuts applied:  2
Mixed integer rounding cuts applied:  15
Zero-half cuts applied:  53
Lift and project cuts applied:  6
Gomory fractional cuts applied:  27

Root node processing (before b&c):
  Real time             =    1.60 sec. (1280.80 ticks)
Parallel b&c, 40 threads:
  Real time             =   28.47 sec. (18144.54 ticks)
  Sync time (average)   =    5.81 sec.
  Wait time (average)   =    0.11 sec.
                          ------------
Total (root+branch&cut) =   30.07 sec. (19425.34 ticks)

Solution pool: 32 solutions saved.

MIP - Integer optimal solution:  Objective = -1.5389999189e+13
Solution time =   30.19 sec.  Iterations = 1728740  Nodes = 15921
Deterministic time = 19425.37 ticks  (643.42 ticks/sec)

CPLEX> Solution 'p33' written to file 'ee.sol'.
CPLEX> 